\ LP format - for model browsing. Use MPS format to capture full model detail.
Minimize
  0.5916 X0|0 + 0.2175 X0|1 + 0.8526 X0|2 + 0.7569 X0|3 + 0.0609 X0|4
   + 0.2262 X0|5 + 0.2175 X0|6 + 1.938 X1|0 + 0.7125 X1|1 + 2.793 X1|2
   + 2.4795 X1|3 + 0.1995 X1|4 + 0.741 X1|5 + 0.7125 X1|6 + 1.292 X2|0
   + 0.475 X2|1 + 1.862 X2|2 + 1.653 X2|3 + 0.133 X2|4 + 0.494 X2|5
   + 0.475 X2|6 + 0.8296 X3|0 + 0.305 X3|1 + 1.1956 X3|2 + 1.0614 X3|3
   + 0.0854 X3|4 + 0.3172 X3|5 + 0.305 X3|6 + 1.2716 X4|0 + 0.4675 X4|1
   + 1.8326 X4|2 + 1.6269 X4|3 + 0.1309 X4|4 + 0.4862 X4|5 + 0.4675 X4|6
   + 1.7204 X5|0 + 0.6325 X5|1 + 2.4794 X5|2 + 2.2011 X5|3 + 0.1771 X5|4
   + 0.6578 X5|5 + 0.6325 X5|6 + 1.2444 X6|0 + 0.4575 X6|1 + 1.7934 X6|2
   + 1.5921 X6|3 + 0.1281 X6|4 + 0.4758 X6|5 + 0.4575 X6|6 + 0.8772 X7|0
   + 0.3225 X7|1 + 1.2642 X7|2 + 1.1223 X7|3 + 0.0903 X7|4 + 0.3354 X7|5
   + 0.3225 X7|6 + 1.6456 X8|0 + 0.605 X8|1 + 2.3716 X8|2 + 2.1054 X8|3
   + 0.1694 X8|4 + 0.6292 X8|5 + 0.605 X8|6 + 1.3192 X9|0 + 0.485 X9|1
   + 1.9012 X9|2 + 1.6878 X9|3 + 0.1358 X9|4 + 0.5044 X9|5 + 0.485 X9|6
   + 1.2172 X10|0 + 0.4475 X10|1 + 1.7542 X10|2 + 1.5573 X10|3
   + 0.1253 X10|4 + 0.4654 X10|5 + 0.4475 X10|6 + 1.7272 X11|0
   + 0.635 X11|1 + 2.4892 X11|2 + 2.2098 X11|3 + 0.1778 X11|4
   + 0.6604 X11|5 + 0.635 X11|6 + 0.8228 X12|0 + 0.3025 X12|1
   + 1.1858 X12|2 + 1.0527 X12|3 + 0.0847 X12|4 + 0.3146 X12|5
   + 0.3025 X12|6 + 1.9516 X13|0 + 0.7175 X13|1 + 2.8126 X13|2
   + 2.4969 X13|3 + 0.2009 X13|4 + 0.7462 X13|5 + 0.7175 X13|6
   + 1.2512 X14|0 + 0.46 X14|1 + 1.8032 X14|2 + 1.6008 X14|3 + 0.1288 X14|4
   + 0.4784 X14|5 + 0.46 X14|6 + 0.51 X15|0 + 0.1875 X15|1 + 0.735 X15|2
   + 0.6525 X15|3 + 0.0525 X15|4 + 0.195 X15|5 + 0.1875 X15|6
   + 1.5504 X16|0 + 0.57 X16|1 + 2.2344 X16|2 + 1.9836 X16|3 + 0.1596 X16|4
   + 0.5928 X16|5 + 0.57 X16|6 + 0.476 X17|0 + 0.175 X17|1 + 0.686 X17|2
   + 0.609 X17|3 + 0.049 X17|4 + 0.182 X17|5 + 0.175 X17|6 + 1.0268 X18|0
   + 0.3775 X18|1 + 1.4798 X18|2 + 1.3137 X18|3 + 0.1057 X18|4
   + 0.3926 X18|5 + 0.3775 X18|6 + 1.3328 X19|0 + 0.49 X19|1 + 1.9208 X19|2
   + 1.7052 X19|3 + 0.1372 X19|4 + 0.5096 X19|5 + 0.49 X19|6
Subject To
 flight_0: X0|2 + X0|4 + X0|6 = 1
 flight_1: X1|1 + X1|3 = 1
 flight_2: X2|2 + X2|4 + X2|6 = 1
 flight_3: X3|0 + X3|5 = 1
 flight_4: X4|1 + X4|3 = 1
 flight_5: X5|1 + X5|3 = 1
 flight_6: X6|2 + X6|4 + X6|6 = 1
 flight_7: X7|2 + X7|4 + X7|6 = 1
 flight_8: X8|2 + X8|4 + X8|6 = 1
 flight_9: X9|0 + X9|5 = 1
 flight_10: X10|0 + X10|5 = 1
 flight_11: X11|2 + X11|4 + X11|6 = 1
 flight_12: X12|0 + X12|5 = 1
 flight_13: X13|1 + X13|3 = 1
 flight_14: X14|0 + X14|5 = 1
 flight_15: X15|0 + X15|5 = 1
 flight_16: X16|2 + X16|4 + X16|6 = 1
 flight_17: X17|2 + X17|4 + X17|6 = 1
 flight_18: X18|1 + X18|3 = 1
 flight_19: X19|0 + X19|5 = 1
 gate_0: X8|2 + X16|2 <= 1
 gate_1: X8|4 + X16|4 <= 1
 gate_2: X8|6 + X16|6 <= 1
 gate_0: X15|0 <= 1
 gate_1: X6|2 + X17|2 <= 1
 gate_2: X6|4 + X17|4 <= 1
 gate_3: X15|5 <= 1
 gate_4: X6|6 + X17|6 <= 1
 gate_0: X1|1 <= 1
 gate_1: X1|3 <= 1
Bounds
Binaries
 X0|0 X0|1 X0|2 X0|3 X0|4 X0|5 X0|6 X1|0 X1|1 X1|2 X1|3 X1|4 X1|5 X1|6 X2|0
 X2|1 X2|2 X2|3 X2|4 X2|5 X2|6 X3|0 X3|1 X3|2 X3|3 X3|4 X3|5 X3|6 X4|0 X4|1
 X4|2 X4|3 X4|4 X4|5 X4|6 X5|0 X5|1 X5|2 X5|3 X5|4 X5|5 X5|6 X6|0 X6|1 X6|2
 X6|3 X6|4 X6|5 X6|6 X7|0 X7|1 X7|2 X7|3 X7|4 X7|5 X7|6 X8|0 X8|1 X8|2 X8|3
 X8|4 X8|5 X8|6 X9|0 X9|1 X9|2 X9|3 X9|4 X9|5 X9|6 X10|0 X10|1 X10|2 X10|3
 X10|4 X10|5 X10|6 X11|0 X11|1 X11|2 X11|3 X11|4 X11|5 X11|6 X12|0 X12|1
 X12|2 X12|3 X12|4 X12|5 X12|6 X13|0 X13|1 X13|2 X13|3 X13|4 X13|5 X13|6
 X14|0 X14|1 X14|2 X14|3 X14|4 X14|5 X14|6 X15|0 X15|1 X15|2 X15|3 X15|4
 X15|5 X15|6 X16|0 X16|1 X16|2 X16|3 X16|4 X16|5 X16|6 X17|0 X17|1 X17|2
 X17|3 X17|4 X17|5 X17|6 X18|0 X18|1 X18|2 X18|3 X18|4 X18|5 X18|6 X19|0
 X19|1 X19|2 X19|3 X19|4 X19|5 X19|6
End
